(set-logic QF_FPABV)
(declare-fun b13 () (_ FP 11 53))
(declare-fun b25 () (_ FP 11 53))
(declare-fun b22 () (_ FP 11 53))
(declare-fun b82 () (_ FP 11 53))
(declare-fun b14 () (_ FP 11 53))
(declare-fun b34 () (_ FP 11 53))
(declare-fun b43 () (_ FP 11 53))
(declare-fun b85 () (_ FP 11 53))
(declare-fun b16 () (_ FP 11 53))
(declare-fun b131 () (_ FP 11 53))
(declare-fun b126 () (_ FP 11 53))
(define-fun .3 () RoundingMode roundNearestTiesToEven)
(define-fun .9 () (_ FP 11 53) b131)
(define-fun .10 () (_ FP 11 53) b43)
(define-fun .11 () Bool (= .9 .10))
(define-fun .12 () Bool (not .11))
(define-fun .13 () (_ FP 11 53) b126)
(define-fun .14 () (_ FP 11 53) b34)
(define-fun .15 () Bool (= .13 .14))
(define-fun .16 () Bool (not .15))
(define-fun .17 () (_ FP 11 53) b13)
(define-fun .18 () (_ FP 11 53) b25)
(define-fun .19 () (_ FP 11 53) (* .3 .17 .18))
(define-fun .20 () (_ FP 11 53) b16)
(define-fun .21 () (_ FP 11 53) b22)
(define-fun .22 () (_ FP 11 53) (+ .3 .20 .21))
(define-fun .23 () Bool (< .22 .19))
(define-fun .24 () Bool (not .23))
(define-fun .25 () (_ FP 11 53) b14)
(define-fun .26 () (_ FP 11 53) (- .25))
(define-fun .27 () (_ FP 11 53) (+ .3 .17 .26))
(define-fun .28 () Bool (< .27 .21))
(define-fun .29 () Bool (not .28))
(define-fun .30 () (_ FP 11 53) (* .3 .17 .25))
(define-fun .31 () Bool (< .30 .20))
(define-fun .32 () Bool (not .31))
(define-fun .33 () (_ FP 11 53) (+ .3 .17 .25))
(define-fun .34 () Bool (< .33 .20))
(define-fun .35 () Bool (not .34))
(define-fun .36 () Bool (= .13 .20))
(define-fun .37 () Bool (and .35 .36))
(define-fun .38 () Bool (= .9 .21))
(define-fun .39 () Bool (and .37 .38))
(define-fun .40 () (_ FP 11 53) b85)
(define-fun .41 () Bool (<= .40 .25))
(define-fun .42 () Bool (and .39 .41))
(define-fun .43 () (_ FP 11 53) b82)
(define-fun .44 () Bool (<= .25 .43))
(define-fun .45 () Bool (and .42 .44))
(define-fun .46 () Bool (<= .40 .17))
(define-fun .47 () Bool (and .45 .46))
(define-fun .48 () Bool (<= .17 .43))
(define-fun .49 () Bool (and .47 .48))
(define-fun .50 () Bool (<= .40 .20))
(define-fun .51 () Bool (and .49 .50))
(define-fun .52 () Bool (<= .20 .43))
(define-fun .53 () Bool (and .51 .52))
(define-fun .54 () Bool (<= .40 .21))
(define-fun .55 () Bool (and .53 .54))
(define-fun .56 () Bool (<= .21 .43))
(define-fun .57 () Bool (and .55 .56))
(define-fun .58 () (_ FP 11 53) (+ .3 .9 .13))
(define-fun .59 () Bool (< .58 .19))
(define-fun .60 () Bool (and .57 .59))
(define-fun .61 () Bool (< .27 .9))
(define-fun .62 () Bool (and .60 .61))
(define-fun .63 () Bool (< .33 .13))
(define-fun .64 () Bool (and .62 .63))
(define-fun .65 () Bool (and .32 .64))
(define-fun .66 () Bool (and .29 .65))
(define-fun .67 () Bool (and .24 .66))
(define-fun .68 () Bool (and .16 .67))
(define-fun .69 () Bool (and .12 .68))
(assert .69)
(check-sat)
